
  12    4
  10   10   10   10

   0   0   0   0   0   5 2 3 4 5 11 
   7  10  10  10  10   5 10 9 8 7 6 
   7  10  10  10  10   2 8 6 
   8  10  10  10  10   1 7 
   6  10  10  10  10   1 6 
   3  10  10  10  10   1 12
   5  10  10  10  10   1 12
   6  10  10  10  10   1 12
   5  10  10  10  10   1 12
   9  10  10  10  10   1 12
   1  10  10  10  10   1 12
   0   0   0   0   0   0 
